certificates/rado_a9_c87_N21.cnf
c Rad2 upper bound instance: x1 + 9*x2 - x3 = 87, interval [1,21]
p cnf 21 96
1 4 10 0
-1 -4 -10 0
1 11 13 0
-1 -11 -13 0
2 5 10 0
-2 -5 -10 0
2 11 14 0
-2 -11 -14 0
3 6 10 0
-3 -6 -10 0
3 11 15 0
-3 -11 -15 0
4 7 10 0
-4 -7 -10 0
4 11 16 0
-4 -11 -16 0
5 8 10 0
-5 -8 -10 0
5 11 17 0
-5 -11 -17 0
6 9 10 0
-6 -9 -10 0
6 11 18 0
-6 -11 -18 0
1 7 9 0
-1 -7 -9 0
7 10 0
-7 -10 0
7 11 19 0
-7 -11 -19 0
2 8 9 0
-2 -8 -9 0
8 10 11 0
-8 -10 -11 0
8 11 20 0
-8 -11 -20 0
3 9 0
-3 -9 0
9 10 12 0
-9 -10 -12 0
9 11 21 0
-9 -11 -21 0
4 9 10 0
-4 -9 -10 0
10 13 0
-10 -13 0
5 9 11 0
-5 -9 -11 0
10 11 14 0
-10 -11 -14 0
6 9 12 0
-6 -9 -12 0
10 12 15 0
-10 -12 -15 0
7 9 13 0
-7 -9 -13 0
10 13 16 0
-10 -13 -16 0
8 9 14 0
-8 -9 -14 0
10 14 17 0
-10 -14 -17 0
9 15 0
-9 -15 0
10 15 18 0
-10 -15 -18 0
1 8 16 0
-1 -8 -16 0
9 10 16 0
-9 -10 -16 0
10 16 19 0
-10 -16 -19 0
2 8 17 0
-2 -8 -17 0
9 11 17 0
-9 -11 -17 0
10 17 20 0
-10 -17 -20 0
3 8 18 0
-3 -8 -18 0
9 12 18 0
-9 -12 -18 0
10 18 21 0
-10 -18 -21 0
4 8 19 0
-4 -8 -19 0
9 13 19 0
-9 -13 -19 0
5 8 20 0
-5 -8 -20 0
9 14 20 0
-9 -14 -20 0
6 8 21 0
-6 -8 -21 0
9 15 21 0
-9 -15 -21 0
