certificates/rado_a9_c87_N21.drat
10 -19 -20 0
-9 -21 0
-20 9 0
-21 0
11 0
20 -9 0
-9 0
3 0
15 0
-20 0
0
